language ESSENCE' 1.0

letting C_FunctionND be
        [[0, 0, 0, 0, 0, 0, 0, 0, 0, 0, 0, 0, 0, 0, 0, 0; int(0..15)],
         [1, 0, 0, 0, 0, 0, 0, 0, 0, 0, 0, 0, 0, 0, 0, 0; int(0..15)],
         [1, 0, 0, 0, 0, 0, 0, 0, 0, 0, 0, 0, 0, 0, 0, 0; int(0..15)],
         [1, 0, 0, 0, 0, 0, 0, 0, 0, 0, 0, 0, 0, 0, 0, 0; int(0..15)],
         [1, 0, 0, 0, 0, 0, 0, 0, 0, 0, 0, 0, 0, 0, 0, 0; int(0..15)],
         [1, 0, 0, 0, 0, 0, 0, 0, 0, 0, 0, 0, 0, 0, 0, 0; int(0..15)],
         [1, 0, 0, 0, 0, 0, 0, 0, 0, 0, 0, 0, 0, 0, 0, 0; int(0..15)],
         [1, 0, 0, 0, 0, 0, 0, 0, 0, 0, 0, 0, 0, 0, 0, 0; int(0..15)],
         [0, 1, 1, 1, 1, 1, 1, 0, 0, 0, 0, 0, 0, 0, 0, 0; int(0..15)],
         [0, 1, 0, 0, 0, 0, 0, 1, 0, 0, 0, 0, 0, 0, 0, 0; int(0..15)],
         [0, 0, 1, 0, 0, 0, 0, 1, 0, 0, 0, 0, 0, 0, 0, 0; int(0..15)],
         [0, 0, 0, 1, 0, 0, 0, 1, 0, 0, 0, 0, 0, 0, 0, 0; int(0..15)],
         [0, 0, 0, 0, 1, 0, 0, 1, 0, 0, 0, 0, 0, 0, 0, 0; int(0..15)],
         [0, 0, 0, 0, 0, 1, 0, 1, 0, 0, 0, 0, 0, 0, 0, 0; int(0..15)],
         [0, 0, 0, 0, 0, 0, 1, 1, 0, 0, 0, 0, 0, 0, 0, 0; int(0..15)],
         [0, 0, 0, 0, 0, 0, 0, 0, 1, 1, 1, 1, 1, 1, 1, 0; int(0..15)];
             int(0..15)]
$ Visualisation for C_FunctionND
$ 0 0 0 0 0 0 0 0 0 0 0 0 0 0 0 0
$ 1 0 0 0 0 0 0 0 0 0 0 0 0 0 0 0
$ 1 0 0 0 0 0 0 0 0 0 0 0 0 0 0 0
$ 1 0 0 0 0 0 0 0 0 0 0 0 0 0 0 0
$ 1 0 0 0 0 0 0 0 0 0 0 0 0 0 0 0
$ 1 0 0 0 0 0 0 0 0 0 0 0 0 0 0 0
$ 1 0 0 0 0 0 0 0 0 0 0 0 0 0 0 0
$ 1 0 0 0 0 0 0 0 0 0 0 0 0 0 0 0
$ 0 1 1 1 1 1 1 0 0 0 0 0 0 0 0 0
$ 0 1 0 0 0 0 0 1 0 0 0 0 0 0 0 0
$ 0 0 1 0 0 0 0 1 0 0 0 0 0 0 0 0
$ 0 0 0 1 0 0 0 1 0 0 0 0 0 0 0 0
$ 0 0 0 0 1 0 0 1 0 0 0 0 0 0 0 0
$ 0 0 0 0 0 1 0 1 0 0 0 0 0 0 0 0
$ 0 0 0 0 0 0 1 1 0 0 0 0 0 0 0 0
$ 0 0 0 0 0 0 0 0 1 1 1 1 1 1 1 0

letting J_FunctionND be
        [[0, 1, 2, 3, 4, 5, 6, 7, 8, 9, 10, 11, 12, 13, 14, 15; int(0..15)],
         [1, 1, 8, 8, 8, 8, 8, 9, 8, 9, 15, 15, 15, 15, 15, 15; int(0..15)],
         [2, 8, 2, 8, 8, 8, 8, 10, 8, 15, 10, 15, 15, 15, 15, 15; int(0..15)],
         [3, 8, 8, 3, 8, 8, 8, 11, 8, 15, 15, 11, 15, 15, 15, 15; int(0..15)],
         [4, 8, 8, 8, 4, 8, 8, 12, 8, 15, 15, 15, 12, 15, 15, 15; int(0..15)],
         [5, 8, 8, 8, 8, 5, 8, 13, 8, 15, 15, 15, 15, 13, 15, 15; int(0..15)],
         [6, 8, 8, 8, 8, 8, 6, 14, 8, 15, 15, 15, 15, 15, 14, 15; int(0..15)],
         [7, 9, 10, 11, 12, 13, 14, 7, 15, 9, 10, 11, 12, 13, 14, 15; int(0..15)],
         [8, 8, 8, 8, 8, 8, 8, 15, 8, 15, 15, 15, 15, 15, 15, 15; int(0..15)],
         [9, 9, 15, 15, 15, 15, 15, 9, 15, 9, 15, 15, 15, 15, 15, 15; int(0..15)],
         [10, 15, 10, 15, 15, 15, 15, 10, 15, 15, 10, 15, 15, 15, 15, 15; int(0..15)],
         [11, 15, 15, 11, 15, 15, 15, 11, 15, 15, 15, 11, 15, 15, 15, 15; int(0..15)],
         [12, 15, 15, 15, 12, 15, 15, 12, 15, 15, 15, 15, 12, 15, 15, 15; int(0..15)],
         [13, 15, 15, 15, 15, 13, 15, 13, 15, 15, 15, 15, 15, 13, 15, 15; int(0..15)],
         [14, 15, 15, 15, 15, 15, 14, 14, 15, 15, 15, 15, 15, 15, 14, 15; int(0..15)],
         [15, 15, 15, 15, 15, 15, 15, 15, 15, 15, 15, 15, 15, 15, 15, 15; int(0..15)];
             int(0..15)]
$ Visualisation for J_FunctionND
$  0  1  2  3  4  5  6  7  8  9 10 11 12 13 14 15
$  1  1  8  8  8  8  8  9  8  9 15 15 15 15 15 15
$  2  8  2  8  8  8  8 10  8 15 10 15 15 15 15 15
$  3  8  8  3  8  8  8 11  8 15 15 11 15 15 15 15
$  4  8  8  8  4  8  8 12  8 15 15 15 12 15 15 15
$  5  8  8  8  8  5  8 13  8 15 15 15 15 13 15 15
$  6  8  8  8  8  8  6 14  8 15 15 15 15 15 14 15
$  7  9 10 11 12 13 14  7 15  9 10 11 12 13 14 15
$  8  8  8  8  8  8  8 15  8 15 15 15 15 15 15 15
$  9  9 15 15 15 15 15  9 15  9 15 15 15 15 15 15
$ 10 15 10 15 15 15 15 10 15 15 10 15 15 15 15 15
$ 11 15 15 11 15 15 15 11 15 15 15 11 15 15 15 15
$ 12 15 15 15 12 15 15 12 15 15 15 15 12 15 15 15
$ 13 15 15 15 15 13 15 13 15 15 15 15 15 13 15 15
$ 14 15 15 15 15 15 14 14 15 15 15 15 15 15 14 15
$ 15 15 15 15 15 15 15 15 15 15 15 15 15 15 15 15

letting M_FunctionND be
        [[0, 0, 0, 0, 0, 0, 0, 0, 0, 0, 0, 0, 0, 0, 0, 0; int(0..15)],
         [0, 1, 0, 0, 0, 0, 0, 0, 1, 1, 0, 0, 0, 0, 0, 1; int(0..15)],
         [0, 0, 2, 0, 0, 0, 0, 0, 2, 0, 2, 0, 0, 0, 0, 2; int(0..15)],
         [0, 0, 0, 3, 0, 0, 0, 0, 3, 0, 0, 3, 0, 0, 0, 3; int(0..15)],
         [0, 0, 0, 0, 4, 0, 0, 0, 4, 0, 0, 0, 4, 0, 0, 4; int(0..15)],
         [0, 0, 0, 0, 0, 5, 0, 0, 5, 0, 0, 0, 0, 5, 0, 5; int(0..15)],
         [0, 0, 0, 0, 0, 0, 6, 0, 6, 0, 0, 0, 0, 0, 6, 6; int(0..15)],
         [0, 0, 0, 0, 0, 0, 0, 7, 0, 7, 7, 7, 7, 7, 7, 7; int(0..15)],
         [0, 1, 2, 3, 4, 5, 6, 0, 8, 1, 2, 3, 4, 5, 6, 8; int(0..15)],
         [0, 1, 0, 0, 0, 0, 0, 7, 1, 9, 7, 7, 7, 7, 7, 9; int(0..15)],
         [0, 0, 2, 0, 0, 0, 0, 7, 2, 7, 10, 7, 7, 7, 7, 10; int(0..15)],
         [0, 0, 0, 3, 0, 0, 0, 7, 3, 7, 7, 11, 7, 7, 7, 11; int(0..15)],
         [0, 0, 0, 0, 4, 0, 0, 7, 4, 7, 7, 7, 12, 7, 7, 12; int(0..15)],
         [0, 0, 0, 0, 0, 5, 0, 7, 5, 7, 7, 7, 7, 13, 7, 13; int(0..15)],
         [0, 0, 0, 0, 0, 0, 6, 7, 6, 7, 7, 7, 7, 7, 14, 14; int(0..15)],
         [0, 1, 2, 3, 4, 5, 6, 7, 8, 9, 10, 11, 12, 13, 14, 15; int(0..15)];
             int(0..15)]
$ Visualisation for M_FunctionND
$  0  0  0  0  0  0  0  0  0  0  0  0  0  0  0  0
$  0  1  0  0  0  0  0  0  1  1  0  0  0  0  0  1
$  0  0  2  0  0  0  0  0  2  0  2  0  0  0  0  2
$  0  0  0  3  0  0  0  0  3  0  0  3  0  0  0  3
$  0  0  0  0  4  0  0  0  4  0  0  0  4  0  0  4
$  0  0  0  0  0  5  0  0  5  0  0  0  0  5  0  5
$  0  0  0  0  0  0  6  0  6  0  0  0  0  0  6  6
$  0  0  0  0  0  0  0  7  0  7  7  7  7  7  7  7
$  0  1  2  3  4  5  6  0  8  1  2  3  4  5  6  8
$  0  1  0  0  0  0  0  7  1  9  7  7  7  7  7  9
$  0  0  2  0  0  0  0  7  2  7 10  7  7  7  7 10
$  0  0  0  3  0  0  0  7  3  7  7 11  7  7  7 11
$  0  0  0  0  4  0  0  7  4  7  7  7 12  7  7 12
$  0  0  0  0  0  5  0  7  5  7  7  7  7 13  7 13
$  0  0  0  0  0  0  6  7  6  7  7  7  7  7 14 14
$  0  1  2  3  4  5  6  7  8  9 10 11 12 13 14 15

letting R_Function1D be [0, 1, 1, 1, 1, 1, 1, 1, 2, 2, 2, 2, 2, 2, 2, 3; int(0..15)]
